<number of tasks>
89

<cycle time>
87

<task times>
1 28
2 17
3 7
4 10
5 12
6 16
7 13
8 8
9 13
10 24
11 16
12 24
13 12
14 20
15 22
16 22
17 22
18 47
19 6
20 12
21 6
22 22
23 7
24 14
25 68
26 15
27 8
28 74
29 32
30 11
31 18
32 15
33 42
34 27
35 38
36 38
37 26
38 35
39 31
40 8
41 14
42 8
43 8
44 8
45 17
46 7
47 19
48 12
49 24
50 26
51 22
52 14
53 27
54 60
55 4
56 2
57 1
58 9
59 5
60 6
61 7
62 12
63 2
64 11
65 14
66 6
67 21
68 14
69 1
70 6
71 21
72 11
73 14
74 28
75 12
76 11
77 30
78 22
79 14
80 31
81 18
82 16
83 7
84 38
85 8
86 31
87 29
88 12
89 18

<precedence relations>
1,2
2,3
3,4
4,5
4,6
4,7
4,8
4,9
5,10
6,11
7,12
8,18
9,18
10,14
11,12
12,13
13,14
14,15
14,16
15,17
16,54
17,18
18,19
18,20
19,22
20,21
20,28
21,54
22,23
23,24
24,25
25,26
25,27
25,29
26,37
27,33
28,29
29,31
30,54
31,32
32,33
33,34
34,35
35,36
35,37
36,38
37,38
38,39
39,40
39,41
39,42
39,43
40,44
41,53
42,53
43,45
44,52
45,46
46,47
47,48
47,49
49,50
50,51
51,52
52,53
53,68
53,69
53,70
53,71
54,55
55,56
56,57
57,58
57,59
57,60
57,61
57,62
57,63
57,64
57,65
57,66
58,67
59,67
60,67
61,67
62,67
63,67
64,67
65,67
66,67
67,73
68,72
69,72
70,72
71,73
72,78
72,80
73,74
74,75
74,76
75,77
76,81
77,78
78,79
79,81
80,81
81,82
81,84
81,85
82,83
83,86
84,86
85,86
86,87
87,88
87,89

<setup times forward>
4,5:1
4,7:1
4,9:1
5,6:1
5,8:1
5,9:2
5,10:2
5,30:1
6,5:1
6,7:1
6,9:1
6,10:1
6,11:1
7,6:1
7,8:1
7,9:2
7,10:2
7,30:1
8,5:1
8,7:1
8,9:1
8,10:1
8,11:1
8,12:1
8,13:1
8,14:1
8,15:1
9,5:2
9,6:1
9,7:2
9,8:1
9,11:2
9,12:2
9,13:2
9,16:1
9,17:1
9,18:1
9,30:1
10,6:1
10,7:2
10,8:1
10,11:2
10,12:2
10,13:2
10,30:1
11,8:1
11,9:2
11,10:2
11,30:1
12,8:1
12,9:2
12,10:2
12,30:1
13,8:1
13,9:2
13,10:2
13,14:2
13,30:1
14,8:1
14,16:1
14,30:1
15,8:1
15,16:1
15,17:1
15,30:1
16,9:1
16,15:1
16,25:1
16,26:2
16,27:1
16,29:2
16,31:2
16,32:2
16,33:1
16,34:1
16,35:2
16,36:2
16,40:1
16,41:2
16,44:2
16,46:1
16,47:1
16,48:1
16,49:1
16,50:1
16,51:2
16,52:2
16,53:2
16,54:1
16,68:2
16,69:2
16,70:2
16,71:2
16,72:2
16,80:2
17,9:1
19,54:1
19,55:1
19,56:1
19,57:1
19,60:1
19,62:1
19,64:2
19,65:1
19,66:1
20,25:1
20,26:2
20,27:1
21,25:1
21,26:2
21,27:1
21,29:2
21,31:2
21,32:2
21,33:1
21,34:1
21,35:2
21,36:2
21,40:1
21,41:2
21,44:2
21,46:1
21,47:1
21,48:1
21,49:1
21,50:1
21,51:2
21,52:2
21,53:2
21,54:1
21,68:2
21,69:2
21,70:2
21,71:2
21,72:2
21,80:2
22,54:1
22,55:1
22,56:1
22,57:1
22,60:1
22,62:1
22,64:2
22,65:1
22,66:1
23,54:1
23,55:1
23,56:1
23,57:1
23,60:1
23,62:1
23,64:2
23,65:1
23,66:1
24,25:1
24,54:1
24,55:1
24,56:1
24,57:1
24,60:1
24,62:1
24,64:2
24,65:1
24,66:1
25,16:1
25,20:1
25,21:1
25,26:1
25,28:1
25,29:1
25,30:1
25,54:2
25,55:2
25,56:2
25,57:2
25,58:1
25,59:1
25,61:1
25,63:1
25,64:1
25,65:2
25,66:2
25,67:1
26,16:2
26,20:2
26,21:2
26,27:1
26,28:2
26,30:2
26,33:1
26,34:1
26,37:2
26,54:3
26,55:3
26,56:3
26,57:3
26,58:2
26,59:2
26,60:1
26,61:2
26,62:1
26,63:2
26,65:3
26,66:3
26,67:2
27,16:1
27,20:1
27,21:1
27,26:1
27,28:1
27,29:1
27,30:1
27,31:1
27,32:1
27,54:2
27,55:2
27,56:2
27,57:2
27,58:1
27,59:1
27,61:1
27,63:1
27,64:1
27,65:2
27,66:2
27,67:1
28,25:1
28,26:2
28,27:1
28,29:2
28,54:1
28,55:1
28,56:1
28,57:1
28,60:1
28,62:1
28,64:2
28,65:1
28,66:1
29,16:2
29,21:2
29,27:1
29,30:2
29,54:3
29,55:3
29,56:3
29,57:3
29,58:2
29,59:2
29,60:1
29,61:2
29,62:1
29,63:2
29,65:3
29,66:3
29,67:2
30,5:1
30,7:1
30,9:1
30,10:1
30,11:1
30,12:1
30,13:1
30,14:1
30,15:1
30,25:1
30,26:2
30,27:1
30,29:2
30,31:2
30,32:2
30,33:1
30,34:1
30,35:2
30,36:2
30,40:1
30,41:2
30,44:2
30,46:1
30,47:1
30,48:1
30,49:1
30,50:1
30,51:2
30,52:2
30,53:2
30,54:1
30,68:2
30,69:2
30,70:2
30,71:2
30,72:2
30,80:2
31,16:2
31,21:2
31,27:1
31,30:2
31,54:3
31,55:3
31,56:3
31,57:3
31,58:2
31,59:2
31,60:1
31,61:2
31,62:1
31,63:2
31,65:3
31,66:3
31,67:2
32,16:2
32,21:2
32,27:1
32,30:2
32,33:1
32,54:3
32,55:3
32,56:3
32,57:3
32,58:2
32,59:2
32,60:1
32,61:2
32,62:1
32,63:2
32,65:3
32,66:3
32,67:2
33,16:1
33,21:1
33,26:1
33,30:1
33,54:2
33,55:2
33,56:2
33,57:2
33,58:1
33,59:1
33,61:1
33,63:1
33,64:1
33,65:2
33,66:2
33,67:1
34,16:1
34,21:1
34,26:1
34,30:1
34,35:1
34,54:2
34,55:2
34,56:2
34,57:2
34,58:1
34,59:1
34,61:1
34,63:1
34,64:1
34,65:2
34,66:2
34,67:1
35,16:2
35,21:2
35,30:2
35,37:2
35,54:3
35,55:3
35,56:3
35,57:3
35,58:2
35,59:2
35,60:1
35,61:2
35,62:1
35,63:2
35,65:3
35,66:3
35,67:2
36,16:2
36,21:2
36,30:2
36,37:2
36,38:2
36,54:3
36,55:3
36,56:3
36,57:3
36,58:2
36,59:2
36,60:1
36,61:2
36,62:1
36,63:2
36,65:3
36,66:3
36,67:2
37,36:2
37,54:1
37,55:1
37,56:1
37,57:1
37,60:1
37,62:1
37,64:2
37,65:1
37,66:1
38,54:1
38,55:1
38,56:1
38,57:1
38,60:1
38,62:1
38,64:2
38,65:1
38,66:1
39,40:1
39,41:2
39,54:1
39,55:1
39,56:1
39,57:1
39,60:1
39,62:1
39,64:2
39,65:1
39,66:1
40,16:1
40,21:1
40,30:1
40,41:3
40,42:1
40,43:1
40,44:3
40,45:1
40,51:3
40,58:1
40,59:1
40,60:2
40,61:1
40,62:2
40,63:1
40,64:3
40,67:1
41,16:2
41,21:2
41,30:2
41,40:3
41,42:2
41,43:2
41,45:2
41,46:3
41,47:3
41,48:3
41,49:3
41,50:3
41,54:3
41,55:3
41,56:3
41,57:3
41,58:2
41,59:2
41,60:1
41,61:2
41,62:1
41,63:2
41,65:3
41,66:3
41,67:2
42,40:1
42,41:2
42,44:2
42,46:1
42,47:1
42,48:1
42,49:1
42,50:1
42,51:2
42,52:2
42,53:2
42,54:1
42,55:1
42,56:1
42,57:1
42,60:1
42,62:1
42,64:2
42,65:1
42,66:1
43,40:1
43,41:2
43,44:2
43,54:1
43,55:1
43,56:1
43,57:1
43,60:1
43,62:1
43,64:2
43,65:1
43,66:1
44,16:2
44,21:2
44,30:2
44,42:2
44,43:2
44,45:2
44,46:3
44,47:3
44,48:3
44,49:3
44,50:3
44,54:3
44,55:3
44,56:3
44,57:3
44,58:2
44,59:2
44,60:1
44,61:2
44,62:1
44,63:2
44,65:3
44,66:3
44,67:2
45,40:1
45,41:2
45,44:2
45,46:1
45,54:1
45,55:1
45,56:1
45,57:1
45,60:1
45,62:1
45,64:2
45,65:1
45,66:1
46,16:1
46,21:1
46,30:1
46,41:3
46,42:1
46,44:3
46,58:1
46,59:1
46,60:2
46,61:1
46,62:2
46,63:1
46,64:3
46,67:1
47,16:1
47,21:1
47,30:1
47,41:3
47,42:1
47,44:3
47,58:1
47,59:1
47,60:2
47,61:1
47,62:2
47,63:1
47,64:3
47,67:1
48,16:1
48,21:1
48,30:1
48,41:3
48,42:1
48,44:3
48,51:3
48,52:3
48,53:3
48,58:1
48,59:1
48,60:2
48,61:1
48,62:2
48,63:1
48,64:3
48,67:1
48,68:3
48,69:3
48,70:3
48,71:3
48,72:3
48,76:2
48,78:2
48,79:2
48,80:3
48,81:2
48,82:2
48,83:1
48,84:1
48,85:1
48,86:1
49,16:1
49,21:1
49,30:1
49,41:3
49,42:1
49,44:3
49,58:1
49,59:1
49,60:2
49,61:1
49,62:2
49,63:1
49,64:3
49,67:1
50,16:1
50,21:1
50,30:1
50,41:3
50,42:1
50,44:3
50,51:3
50,58:1
50,59:1
50,60:2
50,61:1
50,62:2
50,63:1
50,64:3
50,67:1
51,16:2
51,21:2
51,30:2
51,40:3
51,42:2
51,48:3
51,54:3
51,55:3
51,56:3
51,57:3
51,58:2
51,59:2
51,60:1
51,61:2
51,62:1
51,63:2
51,65:3
51,66:3
51,67:2
52,16:2
52,21:2
52,30:2
52,42:2
52,48:3
52,54:3
52,55:3
52,56:3
52,57:3
52,58:2
52,59:2
52,60:1
52,61:2
52,62:1
52,63:2
52,65:3
52,66:3
52,67:2
53,16:2
53,21:2
53,30:2
53,48:3
53,54:3
53,55:3
53,56:3
53,57:3
53,58:2
53,59:2
53,60:1
53,61:2
53,62:1
53,63:2
53,65:3
53,66:3
53,67:2
54,19:1
54,22:1
54,23:1
54,24:1
54,25:2
54,26:3
54,27:2
54,28:1
54,29:3
54,31:3
54,32:3
54,33:2
54,34:2
54,35:3
54,36:3
54,37:1
54,38:1
54,39:1
54,41:3
54,42:1
54,43:1
54,44:3
54,45:1
54,51:3
54,52:3
54,53:3
54,68:3
54,69:3
54,70:3
54,71:3
54,72:3
54,80:3
55,19:1
55,22:1
55,23:1
55,24:1
55,25:2
55,26:3
55,27:2
55,28:1
55,29:3
55,31:3
55,32:3
55,33:2
55,34:2
55,35:3
55,36:3
55,37:1
55,38:1
55,39:1
55,41:3
55,42:1
55,43:1
55,44:3
55,45:1
55,51:3
55,52:3
55,53:3
55,68:3
55,69:3
55,70:3
55,71:3
55,72:3
55,80:3
56,19:1
56,22:1
56,23:1
56,24:1
56,25:2
56,26:3
56,27:2
56,28:1
56,29:3
56,31:3
56,32:3
56,33:2
56,34:2
56,35:3
56,36:3
56,37:1
56,38:1
56,39:1
56,41:3
56,42:1
56,43:1
56,44:3
56,45:1
56,51:3
56,52:3
56,53:3
56,68:3
56,69:3
56,70:3
56,71:3
56,72:3
56,80:3
57,19:1
57,22:1
57,23:1
57,24:1
57,25:2
57,26:3
57,27:2
57,28:1
57,29:3
57,31:3
57,32:3
57,33:2
57,34:2
57,35:3
57,36:3
57,37:1
57,38:1
57,39:1
57,41:3
57,42:1
57,43:1
57,44:3
57,45:1
57,51:3
57,52:3
57,53:3
57,58:1
57,59:1
57,60:2
57,61:1
57,62:2
57,63:1
57,64:3
57,68:3
57,69:3
57,70:3
57,71:3
57,72:3
57,80:3
58,25:1
58,26:2
58,27:1
58,29:2
58,31:2
58,32:2
58,33:1
58,34:1
58,35:2
58,36:2
58,40:1
58,41:2
58,44:2
58,46:1
58,47:1
58,48:1
58,49:1
58,50:1
58,51:2
58,52:2
58,53:2
58,60:1
58,62:1
58,64:2
58,65:1
58,66:1
58,68:2
58,69:2
58,70:2
58,71:2
58,72:2
58,80:2
59,25:1
59,26:2
59,27:1
59,29:2
59,31:2
59,32:2
59,33:1
59,34:1
59,35:2
59,36:2
59,40:1
59,41:2
59,44:2
59,46:1
59,47:1
59,48:1
59,49:1
59,50:1
59,51:2
59,52:2
59,53:2
59,60:1
59,62:1
59,64:2
59,65:1
59,66:1
59,68:2
59,69:2
59,70:2
59,71:2
59,72:2
59,80:2
60,19:1
60,22:1
60,23:1
60,24:1
60,26:1
60,28:1
60,29:1
60,31:1
60,32:1
60,35:1
60,36:1
60,37:1
60,38:1
60,39:1
60,40:2
60,41:1
60,42:1
60,43:1
60,44:1
60,45:1
60,46:2
60,47:2
60,48:2
60,49:2
60,50:2
60,51:1
60,52:1
60,53:1
60,58:1
60,59:1
60,61:1
60,63:1
60,64:1
60,65:2
60,66:2
60,67:1
60,68:1
60,69:1
60,70:1
60,71:1
60,72:1
60,80:1
61,25:1
61,26:2
61,27:1
61,29:2
61,31:2
61,32:2
61,33:1
61,34:1
61,35:2
61,36:2
61,40:1
61,41:2
61,44:2
61,46:1
61,47:1
61,48:1
61,49:1
61,50:1
61,51:2
61,52:2
61,53:2
61,60:1
61,62:1
61,64:2
61,65:1
61,66:1
61,68:2
61,69:2
61,70:2
61,71:2
61,72:2
61,80:2
62,19:1
62,22:1
62,23:1
62,24:1
62,26:1
62,28:1
62,29:1
62,31:1
62,32:1
62,35:1
62,36:1
62,37:1
62,38:1
62,39:1
62,40:2
62,41:1
62,42:1
62,43:1
62,44:1
62,45:1
62,46:2
62,47:2
62,48:2
62,49:2
62,50:2
62,51:1
62,52:1
62,53:1
62,58:1
62,59:1
62,61:1
62,63:1
62,64:1
62,65:2
62,66:2
62,67:1
62,68:1
62,69:1
62,70:1
62,71:1
62,72:1
62,80:1
63,25:1
63,26:2
63,27:1
63,29:2
63,31:2
63,32:2
63,33:1
63,34:1
63,35:2
63,36:2
63,40:1
63,41:2
63,44:2
63,46:1
63,47:1
63,48:1
63,49:1
63,50:1
63,51:2
63,52:2
63,53:2
63,60:1
63,62:1
63,64:2
63,65:1
63,66:1
63,68:2
63,69:2
63,70:2
63,71:2
63,72:2
63,80:2
64,19:2
64,22:2
64,23:2
64,24:2
64,25:1
64,27:1
64,28:2
64,33:1
64,34:1
64,37:2
64,38:2
64,39:2
64,40:3
64,42:2
64,43:2
64,45:2
64,46:3
64,47:3
64,48:3
64,49:3
64,50:3
64,58:2
64,59:2
64,60:1
64,61:2
64,62:1
64,63:2
64,65:3
64,66:3
64,67:2
65,19:1
65,22:1
65,23:1
65,24:1
65,25:2
65,26:3
65,27:2
65,28:1
65,29:3
65,31:3
65,32:3
65,33:2
65,34:2
65,35:3
65,36:3
65,37:1
65,38:1
65,39:1
65,41:3
65,42:1
65,43:1
65,44:3
65,45:1
65,51:3
65,52:3
65,53:3
65,58:1
65,59:1
65,60:2
65,61:1
65,62:2
65,63:1
65,64:3
65,67:1
65,68:3
65,69:3
65,70:3
65,71:3
65,72:3
65,80:3
66,19:1
66,22:1
66,23:1
66,24:1
66,25:2
66,26:3
66,27:2
66,28:1
66,29:3
66,31:3
66,32:3
66,33:2
66,34:2
66,35:3
66,36:3
66,37:1
66,38:1
66,39:1
66,41:3
66,42:1
66,43:1
66,44:3
66,45:1
66,51:3
66,52:3
66,53:3
66,58:1
66,59:1
66,60:2
66,61:1
66,62:2
66,63:1
66,64:3
66,67:1
66,68:3
66,69:3
66,70:3
66,71:3
66,72:3
66,80:3
67,25:1
67,26:2
67,27:1
67,29:2
67,31:2
67,32:2
67,33:1
67,34:1
67,35:2
67,36:2
67,40:1
67,41:2
67,44:2
67,46:1
67,47:1
67,48:1
67,49:1
67,50:1
67,51:2
67,52:2
67,53:2
67,68:2
67,69:2
67,70:2
67,71:2
67,72:2
67,73:1
67,80:2
68,16:2
68,21:2
68,30:2
68,48:3
68,54:3
68,55:3
68,56:3
68,57:3
68,58:2
68,59:2
68,60:1
68,61:2
68,62:1
68,63:2
68,65:3
68,66:3
68,67:2
68,73:3
68,74:3
68,75:3
68,76:1
68,77:3
69,16:2
69,21:2
69,30:2
69,48:3
69,54:3
69,55:3
69,56:3
69,57:3
69,58:2
69,59:2
69,60:1
69,61:2
69,62:1
69,63:2
69,65:3
69,66:3
69,67:2
69,73:3
69,74:3
69,75:3
69,76:1
69,77:3
70,16:2
70,21:2
70,30:2
70,48:3
70,54:3
70,55:3
70,56:3
70,57:3
70,58:2
70,59:2
70,60:1
70,61:2
70,62:1
70,63:2
70,65:3
70,66:3
70,67:2
70,73:3
70,74:3
70,75:3
70,76:1
70,77:3
71,16:2
71,21:2
71,30:2
71,48:3
71,54:3
71,55:3
71,56:3
71,57:3
71,58:2
71,59:2
71,60:1
71,61:2
71,62:1
71,63:2
71,65:3
71,66:3
71,67:2
71,73:3
72,16:2
72,21:2
72,30:2
72,48:3
72,54:3
72,55:3
72,56:3
72,57:3
72,58:2
72,59:2
72,60:1
72,61:2
72,62:1
72,63:2
72,65:3
72,66:3
72,67:2
72,73:3
72,74:3
72,75:3
72,76:1
72,77:3
72,78:1
73,68:3
73,69:3
73,70:3
73,72:3
73,80:3
74,68:3
74,69:3
74,70:3
74,72:3
74,76:2
74,80:3
75,68:3
75,69:3
75,70:3
75,72:3
75,76:2
75,80:3
76,48:2
76,68:1
76,69:1
76,70:1
76,72:1
76,75:2
76,77:2
76,80:1
77,68:3
77,69:3
77,70:3
77,72:3
77,76:2
77,78:2
77,80:3
78,48:2
78,80:1
79,48:2
79,80:1
80,16:2
80,21:2
80,30:2
80,48:3
80,54:3
80,55:3
80,56:3
80,57:3
80,58:2
80,59:2
80,60:1
80,61:2
80,62:1
80,63:2
80,65:3
80,66:3
80,67:2
80,73:3
80,74:3
80,75:3
80,76:1
80,77:3
80,78:1
80,79:1
80,81:1
81,48:2
81,84:1
81,85:1
82,48:2
82,83:1
82,84:1
82,85:1
83,48:1
84,48:1
84,82:1
85,48:1
85,82:1
86,48:1
86,87:1

<setup times backward>
5,1:1
5,2:1
5,3:1
5,4:1
5,6:1
5,8:1
5,9:2
5,30:1
6,9:1
6,10:1
7,1:1
7,2:1
7,3:1
7,4:1
7,6:1
7,8:1
7,9:2
7,10:2
7,30:1
8,9:1
8,10:1
8,14:1
8,15:1
11,1:1
11,2:1
11,3:1
11,4:1
11,6:1
11,8:1
11,9:2
11,10:2
11,30:1
12,1:1
12,2:1
12,3:1
12,4:1
12,6:1
12,8:1
12,9:2
12,10:2
12,30:1
13,1:1
13,2:1
13,3:1
13,4:1
13,6:1
13,8:1
13,9:2
13,10:2
13,30:1
16,9:1
16,10:1
16,14:1
16,15:1
16,25:1
16,26:2
16,27:1
16,29:2
16,31:2
16,32:2
16,33:1
16,34:1
16,35:2
16,36:2
16,41:2
16,44:2
16,51:2
16,52:2
16,53:2
16,68:2
16,69:2
16,70:2
16,71:2
16,72:2
16,80:2
17,9:1
17,10:1
17,14:1
17,15:1
18,9:1
18,10:1
18,14:1
18,15:1
19,9:1
19,10:1
19,14:1
19,15:1
19,60:1
19,62:1
19,64:2
20,9:1
20,10:1
20,14:1
20,15:1
20,25:1
20,26:2
20,27:1
21,9:1
21,10:1
21,14:1
21,15:1
21,25:1
21,26:2
21,27:1
21,29:2
21,31:2
21,32:2
21,33:1
21,34:1
21,35:2
21,36:2
21,41:2
21,44:2
21,51:2
21,52:2
21,53:2
21,68:2
21,69:2
21,70:2
21,71:2
21,72:2
21,80:2
22,9:1
22,10:1
22,14:1
22,15:1
22,60:1
22,62:1
22,64:2
23,9:1
23,10:1
23,14:1
23,15:1
23,60:1
23,62:1
23,64:2
24,9:1
24,10:1
24,14:1
24,15:1
24,60:1
24,62:1
24,64:2
25,64:1
27,26:1
27,29:1
27,31:1
27,32:1
27,64:1
28,9:1
28,10:1
28,14:1
28,15:1
28,25:1
28,26:2
28,27:1
28,60:1
28,62:1
28,64:2
30,9:1
30,10:1
30,14:1
30,15:1
30,25:1
30,26:2
30,27:1
30,29:2
30,31:2
30,32:2
30,33:1
30,34:1
30,35:2
30,36:2
30,41:2
30,44:2
30,51:2
30,52:2
30,53:2
30,68:2
30,69:2
30,70:2
30,71:2
30,72:2
30,80:2
33,26:1
33,29:1
33,31:1
33,32:1
33,64:1
34,26:1
34,29:1
34,31:1
34,32:1
34,64:1
37,9:1
37,10:1
37,14:1
37,15:1
37,25:1
37,26:2
37,27:1
37,29:2
37,31:2
37,32:2
37,33:1
37,34:1
37,35:2
37,36:2
37,60:1
37,62:1
37,64:2
38,9:1
38,10:1
38,14:1
38,15:1
38,25:1
38,26:2
38,27:1
38,29:2
38,31:2
38,32:2
38,33:1
38,34:1
38,35:2
38,36:2
38,60:1
38,62:1
38,64:2
39,9:1
39,10:1
39,14:1
39,15:1
39,25:1
39,26:2
39,27:1
39,29:2
39,31:2
39,32:2
39,33:1
39,34:1
39,35:2
39,36:2
39,60:1
39,62:1
39,64:2
40,1:1
40,2:1
40,3:1
40,4:1
40,6:1
40,8:1
40,9:2
40,10:2
40,14:2
40,15:2
40,16:1
40,17:1
40,18:1
40,19:1
40,20:1
40,21:1
40,22:1
40,23:1
40,24:1
40,25:2
40,26:3
40,27:2
40,28:1
40,29:3
40,30:1
40,31:3
40,32:3
40,33:2
40,34:2
40,35:3
40,36:3
40,37:1
40,38:1
40,39:1
40,41:3
40,42:1
40,43:1
40,45:1
40,51:3
40,58:1
40,59:1
40,60:2
40,61:1
40,62:2
40,63:1
40,64:3
40,67:1
42,9:1
42,10:1
42,14:1
42,15:1
42,25:1
42,26:2
42,27:1
42,29:2
42,31:2
42,32:2
42,33:1
42,34:1
42,35:2
42,36:2
42,41:2
42,44:2
42,51:2
42,52:2
42,60:1
42,62:1
42,64:2
43,9:1
43,10:1
43,14:1
43,15:1
43,25:1
43,26:2
43,27:1
43,29:2
43,31:2
43,32:2
43,33:1
43,34:1
43,35:2
43,36:2
43,41:2
43,44:2
43,60:1
43,62:1
43,64:2
45,9:1
45,10:1
45,14:1
45,15:1
45,25:1
45,26:2
45,27:1
45,29:2
45,31:2
45,32:2
45,33:1
45,34:1
45,35:2
45,36:2
45,41:2
45,44:2
45,60:1
45,62:1
45,64:2
46,1:1
46,2:1
46,3:1
46,4:1
46,6:1
46,8:1
46,9:2
46,10:2
46,14:2
46,15:2
46,16:1
46,17:1
46,18:1
46,19:1
46,20:1
46,21:1
46,22:1
46,23:1
46,24:1
46,25:2
46,26:3
46,27:2
46,28:1
46,29:3
46,30:1
46,31:3
46,32:3
46,33:2
46,34:2
46,35:3
46,36:3
46,37:1
46,38:1
46,39:1
46,41:3
46,42:1
46,43:1
46,44:3
46,45:1
46,58:1
46,59:1
46,60:2
46,61:1
46,62:2
46,63:1
46,64:3
46,67:1
47,1:1
47,2:1
47,3:1
47,4:1
47,6:1
47,8:1
47,9:2
47,10:2
47,14:2
47,15:2
47,16:1
47,17:1
47,18:1
47,19:1
47,20:1
47,21:1
47,22:1
47,23:1
47,24:1
47,25:2
47,26:3
47,27:2
47,28:1
47,29:3
47,30:1
47,31:3
47,32:3
47,33:2
47,34:2
47,35:3
47,36:3
47,37:1
47,38:1
47,39:1
47,41:3
47,42:1
47,43:1
47,44:3
47,45:1
47,58:1
47,59:1
47,60:2
47,61:1
47,62:2
47,63:1
47,64:3
47,67:1
48,1:1
48,2:1
48,3:1
48,4:1
48,6:1
48,8:1
48,9:2
48,10:2
48,14:2
48,15:2
48,16:1
48,17:1
48,18:1
48,19:1
48,20:1
48,21:1
48,22:1
48,23:1
48,24:1
48,25:2
48,26:3
48,27:2
48,28:1
48,29:3
48,30:1
48,31:3
48,32:3
48,33:2
48,34:2
48,35:3
48,36:3
48,37:1
48,38:1
48,39:1
48,41:3
48,42:1
48,43:1
48,44:3
48,45:1
48,51:3
48,52:3
48,53:3
48,58:1
48,59:1
48,60:2
48,61:1
48,62:2
48,63:1
48,64:3
48,67:1
48,68:3
48,69:3
48,70:3
48,71:3
48,72:3
48,76:2
48,78:2
48,79:2
48,80:3
48,81:2
48,82:2
48,83:1
48,84:1
48,85:1
48,86:1
49,1:1
49,2:1
49,3:1
49,4:1
49,6:1
49,8:1
49,9:2
49,10:2
49,14:2
49,15:2
49,16:1
49,17:1
49,18:1
49,19:1
49,20:1
49,21:1
49,22:1
49,23:1
49,24:1
49,25:2
49,26:3
49,27:2
49,28:1
49,29:3
49,30:1
49,31:3
49,32:3
49,33:2
49,34:2
49,35:3
49,36:3
49,37:1
49,38:1
49,39:1
49,41:3
49,42:1
49,43:1
49,44:3
49,45:1
49,58:1
49,59:1
49,60:2
49,61:1
49,62:2
49,63:1
49,64:3
49,67:1
50,1:1
50,2:1
50,3:1
50,4:1
50,6:1
50,8:1
50,9:2
50,10:2
50,14:2
50,15:2
50,16:1
50,17:1
50,18:1
50,19:1
50,20:1
50,21:1
50,22:1
50,23:1
50,24:1
50,25:2
50,26:3
50,27:2
50,28:1
50,29:3
50,30:1
50,31:3
50,32:3
50,33:2
50,34:2
50,35:3
50,36:3
50,37:1
50,38:1
50,39:1
50,41:3
50,42:1
50,43:1
50,44:3
50,45:1
50,58:1
50,59:1
50,60:2
50,61:1
50,62:2
50,63:1
50,64:3
50,67:1
54,1:1
54,2:1
54,3:1
54,4:1
54,6:1
54,8:1
54,9:2
54,10:2
54,14:2
54,15:2
54,16:1
54,17:1
54,18:1
54,19:1
54,20:1
54,21:1
54,22:1
54,23:1
54,24:1
54,25:2
54,26:3
54,27:2
54,28:1
54,29:3
54,30:1
54,31:3
54,32:3
54,33:2
54,34:2
54,35:3
54,36:3
54,37:1
54,38:1
54,39:1
54,41:3
54,42:1
54,43:1
54,44:3
54,45:1
54,51:3
54,52:3
54,53:3
54,68:3
54,69:3
54,70:3
54,71:3
54,72:3
54,80:3
55,1:1
55,2:1
55,3:1
55,4:1
55,6:1
55,8:1
55,9:2
55,10:2
55,14:2
55,15:2
55,16:1
55,17:1
55,18:1
55,19:1
55,20:1
55,21:1
55,22:1
55,23:1
55,24:1
55,25:2
55,26:3
55,27:2
55,28:1
55,29:3
55,30:1
55,31:3
55,32:3
55,33:2
55,34:2
55,35:3
55,36:3
55,37:1
55,38:1
55,39:1
55,41:3
55,42:1
55,43:1
55,44:3
55,45:1
55,51:3
55,52:3
55,53:3
55,68:3
55,69:3
55,70:3
55,71:3
55,72:3
55,80:3
56,1:1
56,2:1
56,3:1
56,4:1
56,6:1
56,8:1
56,9:2
56,10:2
56,14:2
56,15:2
56,16:1
56,17:1
56,18:1
56,19:1
56,20:1
56,21:1
56,22:1
56,23:1
56,24:1
56,25:2
56,26:3
56,27:2
56,28:1
56,29:3
56,30:1
56,31:3
56,32:3
56,33:2
56,34:2
56,35:3
56,36:3
56,37:1
56,38:1
56,39:1
56,41:3
56,42:1
56,43:1
56,44:3
56,45:1
56,51:3
56,52:3
56,53:3
56,68:3
56,69:3
56,70:3
56,71:3
56,72:3
56,80:3
57,1:1
57,2:1
57,3:1
57,4:1
57,6:1
57,8:1
57,9:2
57,10:2
57,14:2
57,15:2
57,16:1
57,17:1
57,18:1
57,19:1
57,20:1
57,21:1
57,22:1
57,23:1
57,24:1
57,25:2
57,26:3
57,27:2
57,28:1
57,29:3
57,30:1
57,31:3
57,32:3
57,33:2
57,34:2
57,35:3
57,36:3
57,37:1
57,38:1
57,39:1
57,41:3
57,42:1
57,43:1
57,44:3
57,45:1
57,51:3
57,52:3
57,53:3
57,68:3
57,69:3
57,70:3
57,71:3
57,72:3
57,80:3
58,9:1
58,10:1
58,14:1
58,15:1
58,25:1
58,26:2
58,27:1
58,29:2
58,31:2
58,32:2
58,33:1
58,34:1
58,35:2
58,36:2
58,41:2
58,44:2
58,51:2
58,52:2
58,53:2
58,60:1
58,62:1
58,64:2
58,68:2
58,69:2
58,70:2
58,71:2
58,72:2
58,80:2
59,9:1
59,10:1
59,14:1
59,15:1
59,25:1
59,26:2
59,27:1
59,29:2
59,31:2
59,32:2
59,33:1
59,34:1
59,35:2
59,36:2
59,41:2
59,44:2
59,51:2
59,52:2
59,53:2
59,60:1
59,62:1
59,64:2
59,68:2
59,69:2
59,70:2
59,71:2
59,72:2
59,80:2
60,26:1
60,29:1
60,31:1
60,32:1
60,35:1
60,36:1
60,41:1
60,44:1
60,51:1
60,52:1
60,53:1
60,64:1
60,68:1
60,69:1
60,70:1
60,71:1
60,72:1
60,80:1
61,9:1
61,10:1
61,14:1
61,15:1
61,25:1
61,26:2
61,27:1
61,29:2
61,31:2
61,32:2
61,33:1
61,34:1
61,35:2
61,36:2
61,41:2
61,44:2
61,51:2
61,52:2
61,53:2
61,60:1
61,62:1
61,64:2
61,68:2
61,69:2
61,70:2
61,71:2
61,72:2
61,80:2
62,26:1
62,29:1
62,31:1
62,32:1
62,35:1
62,36:1
62,41:1
62,44:1
62,51:1
62,52:1
62,53:1
62,64:1
62,68:1
62,69:1
62,70:1
62,71:1
62,72:1
62,80:1
63,9:1
63,10:1
63,14:1
63,15:1
63,25:1
63,26:2
63,27:1
63,29:2
63,31:2
63,32:2
63,33:1
63,34:1
63,35:2
63,36:2
63,41:2
63,44:2
63,51:2
63,52:2
63,53:2
63,60:1
63,62:1
63,64:2
63,68:2
63,69:2
63,70:2
63,71:2
63,72:2
63,80:2
65,1:1
65,2:1
65,3:1
65,4:1
65,6:1
65,8:1
65,9:2
65,10:2
65,14:2
65,15:2
65,16:1
65,17:1
65,18:1
65,19:1
65,20:1
65,21:1
65,22:1
65,23:1
65,24:1
65,25:2
65,26:3
65,27:2
65,28:1
65,29:3
65,30:1
65,31:3
65,32:3
65,33:2
65,34:2
65,35:3
65,36:3
65,37:1
65,38:1
65,39:1
65,41:3
65,42:1
65,43:1
65,44:3
65,45:1
65,51:3
65,52:3
65,53:3
65,58:1
65,59:1
65,60:2
65,61:1
65,62:2
65,63:1
65,64:3
65,68:3
65,69:3
65,70:3
65,71:3
65,72:3
65,80:3
66,1:1
66,2:1
66,3:1
66,4:1
66,6:1
66,8:1
66,9:2
66,10:2
66,14:2
66,15:2
66,16:1
66,17:1
66,18:1
66,19:1
66,20:1
66,21:1
66,22:1
66,23:1
66,24:1
66,25:2
66,26:3
66,27:2
66,28:1
66,29:3
66,30:1
66,31:3
66,32:3
66,33:2
66,34:2
66,35:3
66,36:3
66,37:1
66,38:1
66,39:1
66,41:3
66,42:1
66,43:1
66,44:3
66,45:1
66,51:3
66,52:3
66,53:3
66,58:1
66,59:1
66,60:2
66,61:1
66,62:2
66,63:1
66,64:3
66,68:3
66,69:3
66,70:3
66,71:3
66,72:3
66,80:3
67,9:1
67,10:1
67,14:1
67,15:1
67,25:1
67,26:2
67,27:1
67,29:2
67,31:2
67,32:2
67,33:1
67,34:1
67,35:2
67,36:2
67,41:2
67,44:2
67,51:2
67,52:2
67,53:2
67,60:1
67,62:1
67,64:2
67,68:2
67,69:2
67,70:2
67,71:2
67,72:2
67,80:2
73,1:1
73,2:1
73,3:1
73,4:1
73,6:1
73,8:1
73,9:2
73,10:2
73,14:2
73,15:2
73,16:1
73,17:1
73,18:1
73,19:1
73,20:1
73,21:1
73,22:1
73,23:1
73,24:1
73,25:2
73,26:3
73,27:2
73,28:1
73,29:3
73,30:1
73,31:3
73,32:3
73,33:2
73,34:2
73,35:3
73,36:3
73,37:1
73,38:1
73,39:1
73,41:3
73,42:1
73,43:1
73,44:3
73,45:1
73,51:3
73,52:3
73,53:3
73,58:1
73,59:1
73,60:2
73,61:1
73,62:2
73,63:1
73,64:3
73,67:1
73,68:3
73,69:3
73,70:3
73,71:3
73,72:3
73,80:3
74,1:1
74,2:1
74,3:1
74,4:1
74,6:1
74,8:1
74,9:2
74,10:2
74,14:2
74,15:2
74,16:1
74,17:1
74,18:1
74,19:1
74,20:1
74,21:1
74,22:1
74,23:1
74,24:1
74,25:2
74,26:3
74,27:2
74,28:1
74,29:3
74,30:1
74,31:3
74,32:3
74,33:2
74,34:2
74,35:3
74,36:3
74,37:1
74,38:1
74,39:1
74,41:3
74,42:1
74,43:1
74,44:3
74,45:1
74,51:3
74,52:3
74,53:3
74,58:1
74,59:1
74,60:2
74,61:1
74,62:2
74,63:1
74,64:3
74,67:1
74,68:3
74,69:3
74,70:3
74,71:3
74,72:3
74,80:3
75,1:1
75,2:1
75,3:1
75,4:1
75,6:1
75,8:1
75,9:2
75,10:2
75,14:2
75,15:2
75,16:1
75,17:1
75,18:1
75,19:1
75,20:1
75,21:1
75,22:1
75,23:1
75,24:1
75,25:2
75,26:3
75,27:2
75,28:1
75,29:3
75,30:1
75,31:3
75,32:3
75,33:2
75,34:2
75,35:3
75,36:3
75,37:1
75,38:1
75,39:1
75,41:3
75,42:1
75,43:1
75,44:3
75,45:1
75,51:3
75,52:3
75,53:3
75,58:1
75,59:1
75,60:2
75,61:1
75,62:2
75,63:1
75,64:3
75,67:1
75,68:3
75,69:3
75,70:3
75,71:3
75,72:3
75,76:2
75,80:3
76,26:1
76,29:1
76,31:1
76,32:1
76,35:1
76,36:1
76,41:1
76,44:1
76,51:1
76,52:1
76,53:1
76,64:1
76,68:1
76,69:1
76,70:1
76,71:1
76,72:1
76,80:1
77,1:1
77,2:1
77,3:1
77,4:1
77,6:1
77,8:1
77,9:2
77,10:2
77,14:2
77,15:2
77,16:1
77,17:1
77,18:1
77,19:1
77,20:1
77,21:1
77,22:1
77,23:1
77,24:1
77,25:2
77,26:3
77,27:2
77,28:1
77,29:3
77,30:1
77,31:3
77,32:3
77,33:2
77,34:2
77,35:3
77,36:3
77,37:1
77,38:1
77,39:1
77,41:3
77,42:1
77,43:1
77,44:3
77,45:1
77,51:3
77,52:3
77,53:3
77,58:1
77,59:1
77,60:2
77,61:1
77,62:2
77,63:1
77,64:3
77,67:1
77,68:3
77,69:3
77,70:3
77,71:3
77,72:3
77,76:2
77,80:3
78,26:1
78,29:1
78,31:1
78,32:1
78,35:1
78,36:1
78,41:1
78,44:1
78,51:1
78,52:1
78,53:1
78,64:1
78,68:1
78,69:1
78,70:1
78,71:1
78,72:1
78,80:1
79,26:1
79,29:1
79,31:1
79,32:1
79,35:1
79,36:1
79,41:1
79,44:1
79,51:1
79,52:1
79,53:1
79,64:1
79,68:1
79,69:1
79,70:1
79,71:1
79,72:1
79,80:1
81,26:1
81,29:1
81,31:1
81,32:1
81,35:1
81,36:1
81,41:1
81,44:1
81,51:1
81,52:1
81,53:1
81,64:1
81,68:1
81,69:1
81,70:1
81,71:1
81,72:1
81,80:1
82,26:1
82,29:1
82,31:1
82,32:1
82,35:1
82,36:1
82,41:1
82,44:1
82,51:1
82,52:1
82,53:1
82,64:1
82,68:1
82,69:1
82,70:1
82,71:1
82,72:1
82,80:1
83,9:1
83,10:1
83,14:1
83,15:1
83,25:1
83,26:2
83,27:1
83,29:2
83,31:2
83,32:2
83,33:1
83,34:1
83,35:2
83,36:2
83,41:2
83,44:2
83,51:2
83,52:2
83,53:2
83,60:1
83,62:1
83,64:2
83,68:2
83,69:2
83,70:2
83,71:2
83,72:2
83,76:1
83,78:1
83,79:1
83,80:2
83,81:1
83,82:1
84,9:1
84,10:1
84,14:1
84,15:1
84,25:1
84,26:2
84,27:1
84,29:2
84,31:2
84,32:2
84,33:1
84,34:1
84,35:2
84,36:2
84,41:2
84,44:2
84,51:2
84,52:2
84,53:2
84,60:1
84,62:1
84,64:2
84,68:2
84,69:2
84,70:2
84,71:2
84,72:2
84,76:1
84,78:1
84,79:1
84,80:2
84,81:1
84,82:1
85,9:1
85,10:1
85,14:1
85,15:1
85,25:1
85,26:2
85,27:1
85,29:2
85,31:2
85,32:2
85,33:1
85,34:1
85,35:2
85,36:2
85,41:2
85,44:2
85,51:2
85,52:2
85,53:2
85,60:1
85,62:1
85,64:2
85,68:2
85,69:2
85,70:2
85,71:2
85,72:2
85,76:1
85,78:1
85,79:1
85,80:2
85,81:1
85,82:1
86,9:1
86,10:1
86,14:1
86,15:1
86,25:1
86,26:2
86,27:1
86,29:2
86,31:2
86,32:2
86,33:1
86,34:1
86,35:2
86,36:2
86,41:2
86,44:2
86,51:2
86,52:2
86,53:2
86,60:1
86,62:1
86,64:2
86,68:2
86,69:2
86,70:2
86,71:2
86,72:2
86,76:1
86,78:1
86,79:1
86,80:2
86,81:1
86,82:1
87,1:1
87,2:1
87,3:1
87,4:1
87,6:1
87,8:1
87,9:2
87,10:2
87,14:2
87,15:2
87,16:1
87,17:1
87,18:1
87,19:1
87,20:1
87,21:1
87,22:1
87,23:1
87,24:1
87,25:2
87,26:3
87,27:2
87,28:1
87,29:3
87,30:1
87,31:3
87,32:3
87,33:2
87,34:2
87,35:3
87,36:3
87,37:1
87,38:1
87,39:1
87,41:3
87,42:1
87,43:1
87,44:3
87,45:1
87,51:3
87,52:3
87,53:3
87,58:1
87,59:1
87,60:2
87,61:1
87,62:2
87,63:1
87,64:3
87,67:1
87,68:3
87,69:3
87,70:3
87,71:3
87,72:3
87,76:2
87,78:2
87,79:2
87,80:3
87,81:2
87,82:2
87,83:1
87,84:1
87,85:1
87,86:1
88,1:1
88,2:1
88,3:1
88,4:1
88,6:1
88,8:1
88,9:2
88,10:2
88,14:2
88,15:2
88,16:1
88,17:1
88,18:1
88,19:1
88,20:1
88,21:1
88,22:1
88,23:1
88,24:1
88,25:2
88,26:3
88,27:2
88,28:1
88,29:3
88,30:1
88,31:3
88,32:3
88,33:2
88,34:2
88,35:3
88,36:3
88,37:1
88,38:1
88,39:1
88,41:3
88,42:1
88,43:1
88,44:3
88,45:1
88,51:3
88,52:3
88,53:3
88,58:1
88,59:1
88,60:2
88,61:1
88,62:2
88,63:1
88,64:3
88,67:1
88,68:3
88,69:3
88,70:3
88,71:3
88,72:3
88,76:2
88,78:2
88,79:2
88,80:3
88,81:2
88,82:2
88,83:1
88,84:1
88,85:1
88,86:1
89,1:1
89,2:1
89,3:1
89,4:1
89,6:1
89,8:1
89,9:2
89,10:2
89,14:2
89,15:2
89,16:1
89,17:1
89,18:1
89,19:1
89,20:1
89,21:1
89,22:1
89,23:1
89,24:1
89,25:2
89,26:3
89,27:2
89,28:1
89,29:3
89,30:1
89,31:3
89,32:3
89,33:2
89,34:2
89,35:3
89,36:3
89,37:1
89,38:1
89,39:1
89,41:3
89,42:1
89,43:1
89,44:3
89,45:1
89,51:3
89,52:3
89,53:3
89,58:1
89,59:1
89,60:2
89,61:1
89,62:2
89,63:1
89,64:3
89,67:1
89,68:3
89,69:3
89,70:3
89,71:3
89,72:3
89,76:2
89,78:2
89,79:2
89,80:3
89,81:2
89,82:2
89,83:1
89,84:1
89,85:1
89,86:1

<end>

<optimal SALBP-1 value>
20


<rand seed>
467321153

<Lower Bounds>
Lm1=19
Lms1=19
Lm2=4
Lm3=9
Lm4=20
Best=20

<Optimal Stations (Iterations: 10)>
23
